237,336
387,555
245,723
681,856
1081,610
803,646
709,583
761,446
627,300
488,140
713,199
237,336
148,322
598,150
718,169
751,503
803,646
385,702
387,555
627,300
531,406
427,660
606,880
621,406
685,435
1081,610
1214,490
740,415
